
;this file is automatically generated: Mon Oct 26 19:31:23 CST 2020

;declarations generated

(declare-fun oclExcludes ( Int Int) Bool)
(declare-fun type_8537d93d_83b1_4c84_9c15_966f440f0874_Class2 ( Int) Bool)
(declare-fun Cardinality ( Int) Int)
(declare-fun type_8537d93d_83b1_4c84_9c15_966f440f0874_Class40 ( Int) Bool)
(declare-fun obj_ab15585f_b75c_47d3_9e06_53e631738ff4 ( Int) Int)
(declare-fun type_8537d93d_83b1_4c84_9c15_966f440f0874_Class20 ( Int) Bool)
(declare-fun type_8537d93d_83b1_4c84_9c15_966f440f0874_Class21 ( Int) Bool)
(declare-fun oclSelect ( Int Bool) Int)
(declare-fun Enum0 ( Int) Int)
(declare-fun Enum1 ( Int) Int)
(declare-fun Enum2 ( Int) Int)
(declare-fun container_ ( Int) Int)
(declare-fun class40_Class40IntAttr2 ( Int) Int)
(declare-fun oclIncludes ( Int Int) Bool)
(declare-fun ObjAt ( Int Int) Int)

;formula(s) generated
(assert (forall ((p Int)) (=> ( type_8537d93d_83b1_4c84_9c15_966f440f0874_Class40 p )  (and (>= ( Enum0 ( obj_ab15585f_b75c_47d3_9e06_53e631738ff4 p )  )  0) (<= ( Enum0 ( obj_ab15585f_b75c_47d3_9e06_53e631738ff4 p )  )  3)))))
(assert (! (and (forall ((v Int)) (=> (and (and (and ( type_8537d93d_83b1_4c84_9c15_966f440f0874_Class40 v )  ( type_8537d93d_83b1_4c84_9c15_966f440f0874_Class21 v ) ) ( type_8537d93d_83b1_4c84_9c15_966f440f0874_Class2 v ) ) ( type_8537d93d_83b1_4c84_9c15_966f440f0874_Class20 v ) ) (= ( Enum0 ( obj_ab15585f_b75c_47d3_9e06_53e631738ff4 v )  )  1))) (forall ((v Int)) (=> (and (and (and ( type_8537d93d_83b1_4c84_9c15_966f440f0874_Class40 v )  ( type_8537d93d_83b1_4c84_9c15_966f440f0874_Class21 v ) ) ( type_8537d93d_83b1_4c84_9c15_966f440f0874_Class2 v ) ) ( type_8537d93d_83b1_4c84_9c15_966f440f0874_Class20 v ) ) (< ( class40_Class40IntAttr2 ( obj_ab15585f_b75c_47d3_9e06_53e631738ff4 v )  )  12)))):named l0))
(assert (exists ((o Int)) (and (and (and ( type_8537d93d_83b1_4c84_9c15_966f440f0874_Class40 ( obj_ab15585f_b75c_47d3_9e06_53e631738ff4 o )  )  ( type_8537d93d_83b1_4c84_9c15_966f440f0874_Class21 ( obj_ab15585f_b75c_47d3_9e06_53e631738ff4 o )  ) ) ( type_8537d93d_83b1_4c84_9c15_966f440f0874_Class2 ( obj_ab15585f_b75c_47d3_9e06_53e631738ff4 o )  ) ) ( type_8537d93d_83b1_4c84_9c15_966f440f0874_Class20 ( obj_ab15585f_b75c_47d3_9e06_53e631738ff4 o )  ) )))

 ;end of formula 